Route #1: 66 84 90 68
Route #2: 93 75
Route #3: 15 22 41 20
Route #4: 59 60 82
Route #5: 30 85 11 79
Route #6: 44 67 88 40
Route #7: 5 12 58
Route #8: 76 55 16 69
Route #9: 17 8
Route #10: 18 10 39
Route #11: 31 46 35
Route #12: 57 72 36 29 43 45 2 7
Route #13: 89 98 99 62 71
Route #14: 32 33 53 73 95 24
Route #15: 4 13 74
Route #16: 21 56 94 80
Route #17: 38 47 26 48 96 64 34
Route #18: 27 97 19
Route #19: 86 9 92
Route #20: 63 77 3
Route #21: 83 51 81
Route #22: 50 91 52
Route #23: 14 49 6 37 87
Route #24: 25 65 78 42 28
Route #25: 23 61 100
Route #26: 54 70 1
Cost 27591.0000
Time 16.0007